NAME          ClpDefau  FREE
ROWS
 N  OBJROW
 L  ZMUNI1_PCT
 L  ZMUNI2_PCT
 L  ZMUNI3_PCT
 L  ZMUNI4_PCT
 L  ZMUNI5_PCT
 L  ZMUNI6_PCT
 L  ZMUNI7_PCT
 L  ZMUNI8_PCT
 L  ZMUNI9_PCT
COLUMNS
    QMUNI1 OBJROW 1.          
    QMUNI1 ZMUNI1_PCT 30090.332   
    QMUNI1 ZMUNI2_PCT 1994.7052   
    QMUNI1 ZMUNI3_PCT 4534.9121   
    QMUNI1 ZMUNI4_PCT 3377.5329   
    QMUNI1 ZMUNI5_PCT 816.5359    
    QMUNI1 ZMUNI6_PCT 925.6363    
    QMUNI1 ZMUNI7_PCT 2309.4177   
    QMUNI1 ZMUNI8_PCT 1608.6579   
    QMUNI1 ZMUNI9_PCT 515.7471    
    QMUNI2 OBJROW 1.          
    QMUNI2 ZMUNI1_PCT 1557.3501   
    QMUNI2 ZMUNI2_PCT 35312.8433  
    QMUNI2 ZMUNI3_PCT 2339.1723   
    QMUNI2 ZMUNI4_PCT 2539.6347   
    QMUNI2 ZMUNI5_PCT 83.7326     
    QMUNI2 ZMUNI6_PCT 125.122     
    QMUNI2 ZMUNI7_PCT 579.8339    
    QMUNI2 ZMUNI8_PCT 604.6296    
    QMUNI2 ZMUNI9_PCT 60.0815     
    QMUNI3 OBJROW 1.          
    QMUNI3 ZMUNI1_PCT 4012.68     
    QMUNI3 ZMUNI2_PCT 2333.4503   
    QMUNI3 ZMUNI3_PCT 31247.9019  
    QMUNI3 ZMUNI4_PCT 5012.1307   
    QMUNI3 ZMUNI5_PCT  -114.0595  
    QMUNI3 ZMUNI6_PCT  -6.6758    
    QMUNI3 ZMUNI7_PCT 942.6117    
    QMUNI3 ZMUNI8_PCT 608.8257    
    QMUNI3 ZMUNI9_PCT  -585.9375  
    QMUNI4 OBJROW 1.          
    QMUNI4 ZMUNI1_PCT 3412.2467   
    QMUNI4 ZMUNI2_PCT 3099.4415   
    QMUNI4 ZMUNI3_PCT 5606.842    
    QMUNI4 ZMUNI4_PCT 111964.9887 
    QMUNI4 ZMUNI5_PCT 251.1978    
    QMUNI4 ZMUNI6_PCT 373.8403    
    QMUNI4 ZMUNI7_PCT 1394.6533   
    QMUNI4 ZMUNI8_PCT 1193.6188   
    QMUNI4 ZMUNI9_PCT 547.4091    
    QMUNI5 OBJROW 1.          
    QMUNI5 ZMUNI1_PCT 19.8364     
    QMUNI5 ZMUNI2_PCT  -143.6234  
    QMUNI5 ZMUNI3_PCT  -47.6837   
    QMUNI5 ZMUNI4_PCT  -62.5611   
    QMUNI5 ZMUNI5_PCT 38687.5152  
    QMUNI5 ZMUNI6_PCT 2936.5539   
    QMUNI5 ZMUNI7_PCT  -123.2148  
    QMUNI5 ZMUNI8_PCT  -394.4397  
    QMUNI5 ZMUNI9_PCT  -683.5937  
    QMUNI6 OBJROW 1.          
    QMUNI6 ZMUNI1_PCT  -112.3429  
    QMUNI6 ZMUNI2_PCT  -396.7285  
    QMUNI6 ZMUNI3_PCT  -218.3915  
    QMUNI6 ZMUNI4_PCT  -214.0046  
    QMUNI6 ZMUNI5_PCT 2595.1385   
    QMUNI6 ZMUNI6_PCT 34083.1756  
    QMUNI6 ZMUNI7_PCT  -551.2238  
    QMUNI6 ZMUNI8_PCT  -896.8353  
    QMUNI6 ZMUNI9_PCT  -1441.0019 
    QMUNI7 OBJROW 1.          
    QMUNI7 ZMUNI1_PCT 1769.638    
    QMUNI7 ZMUNI2_PCT 1112.7472   
    QMUNI7 ZMUNI3_PCT 1581.3827   
    QMUNI7 ZMUNI4_PCT 1259.9945   
    QMUNI7 ZMUNI5_PCT 786.0183    
    QMUNI7 ZMUNI6_PCT 939.9414    
    QMUNI7 ZMUNI7_PCT 36372.7569  
    QMUNI7 ZMUNI8_PCT 2848.4345   
    QMUNI7 ZMUNI9_PCT 1079.1779   
    QMUNI8 OBJROW 1.          
    QMUNI8 ZMUNI1_PCT 958.2519    
    QMUNI8 ZMUNI2_PCT 634.5749    
    QMUNI8 ZMUNI3_PCT 942.6117    
    QMUNI8 ZMUNI4_PCT 751.8768    
    QMUNI8 ZMUNI5_PCT 109.291     
    QMUNI8 ZMUNI6_PCT 167.0837    
    QMUNI8 ZMUNI7_PCT 1991.2719   
    QMUNI8 ZMUNI8_PCT 30941.7725  
    QMUNI8 ZMUNI9_PCT 1.7165999999
    QMUNI9 OBJROW 1.          
    QMUNI9 ZMUNI1_PCT 385.8566    
    QMUNI9 ZMUNI2_PCT 524.3301    
    QMUNI9 ZMUNI3_PCT 425.7202    
    QMUNI9 ZMUNI4_PCT 377.8457    
    QMUNI9 ZMUNI5_PCT 495.7199    
    QMUNI9 ZMUNI6_PCT 391.7694    
    QMUNI9 ZMUNI7_PCT 209.0454    
    QMUNI9 ZMUNI8_PCT 547.7906    
    QMUNI9 ZMUNI9_PCT 30294.7998  
RHS
    RHS ZMUNI1_PCT 0.0492162753
    RHS ZMUNI2_PCT  -0.36627191
    RHS ZMUNI3_PCT  -0.50067209
    RHS ZMUNI4_PCT 2.9634799998
    RHS ZMUNI5_PCT  -2.04965678
    RHS ZMUNI6_PCT  -1.31405091
    RHS ZMUNI7_PCT  -1.89611405
    RHS ZMUNI8_PCT  -1.02329069
    RHS ZMUNI9_PCT  -0.57254721
BOUNDS
 LO BOUND QMUNI1 -0.00067924 
 UP BOUND QMUNI1      1.1e+10
 LO BOUND QMUNI2 -0.000456311
 UP BOUND QMUNI2      1.1e+10
 LO BOUND QMUNI3 -0.000511277
 UP BOUND QMUNI3      1.1e+10
 LO BOUND QMUNI4 -0.000187643
 UP BOUND QMUNI4      1.1e+10
 LO BOUND QMUNI5 -0.000283912
 UP BOUND QMUNI5      1.1e+10
 LO BOUND QMUNI6 -0.000442052
 UP BOUND QMUNI6      1.1e+10
 LO BOUND QMUNI7  -9.06218e-5
 UP BOUND QMUNI7      1.1e+10
 LO BOUND QMUNI8 -0.000207321
 UP BOUND QMUNI8      1.1e+10
 LO BOUND QMUNI9 -0.000176903
 UP BOUND QMUNI9      1.1e+10
ENDATA
